n = 5;

matrix = array2d(1..5, 1..5, [0.0, 0.5, 1.0, 1.4142135623730951, 1.0, 0.5, 0.0,
    0.5, 1.118033988749895, 1.118033988749895, 1.0, 0.5, 0.0, 1.0,
    1.4142135623730951, 1.4142135623730951, 1.118033988749895, 1.0,
    0.0, 1.0, 1.0, 1.118033988749895, 1.4142135623730951, 1.0, 0.0]);

subsets = array1d(1..30, [{1}, {2}, {3}, {4}, {5}, {1, 2}, {1, 3}, {1, 4}, {1,
    5}, {2, 3}, {2, 4}, {2, 5}, {3, 4}, {3, 5}, {4, 5}, {1, 2, 3}, {1,
    2, 4}, {1, 2, 5}, {1, 3, 4}, {1, 3, 5}, {1, 4, 5}, {2, 3, 4}, {2,
    3, 5}, {2, 4, 5}, {3, 4, 5}, {1, 2, 3, 4}, {1, 2, 3, 5}, {1, 2, 4,
    5}, {1, 3, 4, 5}, {2, 3, 4, 5}]);

